/*********************************************
 * OPL 12.6.0.0 Data
 * Author: Adrian Rodriguez Bazaga, Pau Rodriguez Esmerats
 * Creation Date: 30/11/2017 at 21:43:54
 *********************************************/

nNurses=596;
maxConsec=2;
maxPresence=7;
maxHours=5;
minHours=1;
demand= [129 113 163 184 113 163 184 119 111 64 15 20 19 31 28 25 18 22 13 11 112 196 93 165  ];
